0 1 61
0 2 49
0 3 30
0 4 48
0 5 16
0 6 54
0 7 92
0 8 62
0 9 20
0 10 55
0 11 78
1 2 78
1 3 74
1 4 63
1 5 96
1 6 45
1 7 85
1 8 76
1 9 42
1 10 21
1 11 44
2 3 89
2 4 25
2 5 48
2 6 53
2 7 61
2 8 4
2 9 83
2 10 93
2 11 24
3 4 46
3 5 46
3 6 38
3 7 88
3 8 3
3 9 63
3 10 26
3 11 54
4 5 39
4 6 36
4 7 61
4 8 76
4 9 56
4 10 31
4 11 99
5 6 92
5 7 75
5 8 37
5 9 13
5 10 63
5 11 20
6 7 78
6 8 17
6 9 47
6 10 8
6 11 17
7 8 9
7 9 38
7 10 44
7 11 48
8 9 88
8 10 89
8 11 6
9 10 59
9 11 9
10 11 18
